% 2022 6/9

n = 135;
m = 7;
maxseats=20; 
minseats=12; 

preference =[|3,7,7,7,2,1,4|
1,7,3,7,7,4,2|
1,7,3,7,7,4,2|
3,7,2,7,4,1,7|
7,7,4,7,3,1,2|
4,7,1,7,2,3,7|
3,7,4,7,1,2,7|
2,7,1,4,7,7,3|
4,7,1,7,2,7,3|
2,7,1,7,3,7,4|
7,7,1,4,2,7,3|
3,7,7,7,4,2,1|
7,7,1,7,2,3,4|
4,7,3,7,1,2,7|
4,7,1,7,3,7,2|
3,2,7,7,7,4,1|
7,7,2,7,4,3,1|
2,7,7,7,3,4,1|
4,7,7,7,1,2,3|
3,7,7,7,1,2,4|
3,7,7,7,1,2,4|
3,7,1,7,4,7,2|
4,7,3,7,1,2,7|
4,7,1,7,3,2,7|
4,3,1,7,2,7,7|
4,7,1,7,3,2,7|
4,3,2,7,7,7,1|
2,7,3,7,1,7,4|
7,7,1,7,3,4,2|
4,7,2,7,7,3,1|
1,7,4,7,7,2,3|
3,7,7,7,4,2,1|
4,7,2,1,7,7,3|
4,7,3,2,7,7,1|
3,7,7,7,2,1,4|
3,7,2,7,7,1,4|
1,7,2,7,7,4,3|
2,7,7,7,3,1,4|
3,7,2,7,7,4,1|
2,7,7,3,7,1,4|
7,7,3,7,1,2,4|
4,7,2,7,1,3,7|
7,7,7,7,3,2,1|
7,7,2,7,1,4,3|
7,7,4,7,3,1,2|
3,7,7,7,4,2,1|
3,7,2,7,7,7,1|
7,7,4,7,3,1,2|
4,7,7,3,1,2,7|
7,4,1,7,2,7,3|
1,4,3,7,7,2,7|
3,7,4,7,2,1,7|
4,7,7,7,3,1,2|
3,7,7,7,2,1,4|
7,7,4,7,2,1,3|
7,4,1,7,7,3,2|
2,7,1,7,3,7,4|
3,7,1,7,7,4,2|
1,7,7,7,2,3,4|
1,7,4,7,3,2,7|
2,7,4,7,3,1,7|
1,2,7,4,7,3,7|
1,7,4,7,2,3,7|
2,7,1,7,7,4,3|
1,7,7,4,7,2,3|
1,7,4,7,2,3,7|
7,7,3,7,2,4,1|
7,7,7,3,1,2,7|
3,7,4,7,1,2,7|
3,7,4,7,7,2,1|
4,7,3,7,1,2,7|
7,7,3,7,4,1,2|
7,7,3,7,4,1,2|
2,4,3,7,7,1,7|
7,4,1,2,3,7,7|
3,7,4,7,1,2,7|
2,7,7,7,4,1,3|
4,7,7,7,2,1,3|
2,7,4,7,3,7,1|
4,7,3,7,7,2,1|
7,7,2,7,4,3,1|
2,7,4,7,7,3,1|
2,7,7,7,4,3,1|
1,7,2,7,7,3,4|
3,4,2,7,7,7,1|
7,7,2,7,4,1,3|
4,7,3,7,1,2,7|
3,4,2,7,7,7,1|
7,7,7,4,1,3,2|
7,7,1,4,2,3,7|
2,7,3,7,7,4,1|
4,7,1,7,3,2,7|
3,7,7,4,1,2,7|
3,7,4,7,1,2,7|
1,7,4,7,7,3,2|
7,7,2,7,4,3,1|
1,7,2,7,7,3,4|
3,7,2,7,4,1,7|
4,7,1,7,3,2,7|
7,7,1,7,3,2,4|
4,7,1,7,7,3,2|
7,4,1,2,3,7,7|
7,7,1,7,3,2,4|
2,7,7,7,3,1,4|
1,7,4,7,3,2,7|
3,7,2,7,7,4,1|
1,7,3,7,2,4,7|
3,7,4,7,1,2,7|
7,7,3,2,1,4,7|
3,7,4,7,1,7,2|
7,7,4,1,2,3,7|
7,7,3,2,1,4,7|
3,7,4,7,1,2,7|
7,7,1,3,4,7,2|
1,7,2,4,3,7,7|
1,7,7,7,4,3,2|
4,7,3,7,1,2,7|
7,7,4,7,3,1,2|
7,7,4,2,1,3,7|
7,7,4,7,3,1,2|
4,7,1,7,3,2,7|
3,7,1,4,2,7,7|
1,7,4,7,7,2,3|
4,7,3,7,1,2,7|
4,7,2,7,3,1,7|
7,4,3,7,7,2,1|
2,7,4,7,7,3,1|
3,7,1,7,2,4,7|
3,7,7,7,2,1,7|
7,7,4,2,3,1,7|
7,7,2,7,3,1,4|
7,7,2,7,3,1,4|
3,7,4,7,7,2,1|
3,7,7,7,1,2,4|
3,7,7,7,1,2,4|];
